\ File written by Highs .lp filereader
minimize
 obj: +1 x1 +16 x2 +36 x3 +16 x4 +1 x5 +1 x6 +4 x7 +24 x8 +24 x9 +4 x10 +4 x11 +1 x12 +24 x13 +16 x14 +24 x15 +36 x16 +4 x17 +16 x18 +0 x19 +0 x20 +0 x21 +0 x22 +0 x23 +0 x24 
st
 con0: +4 x0 +48 x1 +72 x2 +16 x3 +12 x6 +48 x7 +24 x8 = +4
 con1: +16 x1 +72 x2 +48 x3 +4 x4 +24 x7 +48 x8 +12 x9 = +4
 con2: +36 x2 +48 x3 +6 x4 +6 x5 +24 x8 +12 x9 +24 x12 +72 x14 +36 x15 +24 x16 +48 x17 = +6
 con3: +4 x6 +24 x7 +24 x8 +4 x9 = +1
 con4: +6 x0 +48 x1 +36 x2 +12 x6 +24 x7 +24 x10 +6 x11 +72 x12 +48 x13 +24 x14 +36 x15 = +6
 con5: +48 x1 +144 x2 +48 x3 +48 x7 +48 x8 +16 x10 +144 x12 +48 x13 +144 x14 +144 x15 +16 x16 +48 x17 = +16
 con6: +12 x6 +48 x7 +24 x8 +4 x11 +48 x13 +72 x15 +16 x17 = +4
 con7: +4 x5 +24 x7 +48 x8 +12 x9 +16 x13 +72 x15 +48 x17 = +4
 con8: +1 x2 -1 x7 -1 x18 = +0
 con9: +1 x2 -1 x12 -1 x19 = +0
 con10: +1 x2 -1 x13 -1 x20 = +0
 con11: +1 x3 -1 x8 -1 x21 = +0
 con12: +1 x3 -1 x14 -1 x22 = +0
 con13: +1 x3 -1 x15 -1 x23 = +0
bounds
 +0 <= x0 <= +1
 +0 <= x1 <= +0
 +0 <= x2 <= +1
 +0 <= x3 <= +1
 +0 <= x4 <= +0
 +0 <= x5 <= +0
 +0 <= x6 <= +0
 +0 <= x7 <= +1
 +0 <= x8 <= +1
 +0 <= x9 <= +0
 +0 <= x10 <= +0
 +0 <= x11 <= +0
 +0 <= x12 <= +1
 +0 <= x13 <= +1
 +0 <= x14 <= +1
 +0 <= x15 <= +1
 +0 <= x16 <= +0
 +0 <= x17 <= +0
 +0 <= x18 <= +0
 +0 <= x19 <= +0
 +0 <= x20 <= +0
 +0 <= x21 <= +0
 +0 <= x22 <= +0
 +0 <= x23 <= +0
binary
general
semi
end
